p cnf 209 538
-1 2 3 0
-2 1 0
-3 1 0
-4 5 1 0
-5 4 0
-1 4 0
-6 7 4 0
-7 6 0
-4 6 0
-8 9 6 0
-9 8 0
-6 8 0
-10 11 12 0
-11 10 0
-12 10 0
-13 14 10 0
-14 13 0
-10 13 0
-15 16 13 0
-16 15 0
-13 15 0
-17 18 15 0
-18 17 0
-15 17 0
-19 20 21 0
-20 19 0
-21 19 0
-22 23 19 0
-23 22 0
-19 22 0
-24 25 22 0
-25 24 0
-22 24 0
-26 27 24 0
-27 26 0
-24 26 0
-28 29 30 0
-29 28 0
-30 28 0
-31 32 28 0
-32 31 0
-28 31 0
-33 34 31 0
-34 33 0
-31 33 0
-35 36 33 0
-36 35 0
-33 35 0
-37 38 39 0
-38 37 0
-39 37 0
-40 41 37 0
-41 40 0
-37 40 0
-42 43 40 0
-43 42 0
-40 42 0
-44 45 42 0
-45 44 0
-42 44 0
-46 47 48 0
-47 46 0
-48 46 0
-49 50 46 0
-50 49 0
-46 49 0
-51 52 49 0
-52 51 0
-49 51 0
-53 54 51 0
-54 53 0
-51 53 0
-55 9 18 0
-9 55 0
-18 55 0
-56 9 27 0
-9 56 0
-27 56 0
-57 9 36 0
-9 57 0
-36 57 0
-58 9 45 0
-9 58 0
-45 58 0
-59 9 54 0
-9 59 0
-54 59 0
-60 18 27 0
-18 60 0
-27 60 0
-61 18 36 0
-18 61 0
-36 61 0
-62 18 45 0
-18 62 0
-45 62 0
-63 18 54 0
-18 63 0
-54 63 0
-64 27 36 0
-27 64 0
-36 64 0
-65 27 45 0
-27 65 0
-45 65 0
-66 27 54 0
-27 66 0
-54 66 0
-67 36 45 0
-36 67 0
-45 67 0
-68 36 54 0
-36 68 0
-54 68 0
-69 45 54 0
-45 69 0
-54 69 0
-70 7 16 0
-7 70 0
-16 70 0
-71 7 25 0
-7 71 0
-25 71 0
-72 7 34 0
-7 72 0
-34 72 0
-73 7 43 0
-7 73 0
-43 73 0
-74 7 52 0
-7 74 0
-52 74 0
-75 16 25 0
-16 75 0
-25 75 0
-76 16 34 0
-16 76 0
-34 76 0
-77 16 43 0
-16 77 0
-43 77 0
-78 16 52 0
-16 78 0
-52 78 0
-79 25 34 0
-25 79 0
-34 79 0
-80 25 43 0
-25 80 0
-43 80 0
-81 25 52 0
-25 81 0
-52 81 0
-82 34 43 0
-34 82 0
-43 82 0
-83 34 52 0
-34 83 0
-52 83 0
-84 43 52 0
-43 84 0
-52 84 0
-85 5 14 0
-5 85 0
-14 85 0
-86 5 23 0
-5 86 0
-23 86 0
-87 5 32 0
-5 87 0
-32 87 0
-88 5 41 0
-5 88 0
-41 88 0
-89 5 50 0
-5 89 0
-50 89 0
-90 14 23 0
-14 90 0
-23 90 0
-91 14 32 0
-14 91 0
-32 91 0
-92 14 41 0
-14 92 0
-41 92 0
-93 14 50 0
-14 93 0
-50 93 0
-94 23 32 0
-23 94 0
-32 94 0
-95 23 41 0
-23 95 0
-41 95 0
-96 23 50 0
-23 96 0
-50 96 0
-97 32 41 0
-32 97 0
-41 97 0
-98 32 50 0
-32 98 0
-50 98 0
-99 41 50 0
-41 99 0
-50 99 0
-100 2 11 0
-2 100 0
-11 100 0
-101 2 20 0
-2 101 0
-20 101 0
-102 2 29 0
-2 102 0
-29 102 0
-103 2 38 0
-2 103 0
-38 103 0
-104 2 47 0
-2 104 0
-47 104 0
-105 11 20 0
-11 105 0
-20 105 0
-106 11 29 0
-11 106 0
-29 106 0
-107 11 38 0
-11 107 0
-38 107 0
-108 11 47 0
-11 108 0
-47 108 0
-109 20 29 0
-20 109 0
-29 109 0
-110 20 38 0
-20 110 0
-38 110 0
-111 20 47 0
-20 111 0
-47 111 0
-112 29 38 0
-29 112 0
-38 112 0
-113 29 47 0
-29 113 0
-47 113 0
-114 38 47 0
-38 114 0
-47 114 0
-115 3 12 0
-3 115 0
-12 115 0
-116 3 21 0
-3 116 0
-21 116 0
-117 3 30 0
-3 117 0
-30 117 0
-118 3 39 0
-3 118 0
-39 118 0
-119 3 48 0
-3 119 0
-48 119 0
-120 12 21 0
-12 120 0
-21 120 0
-121 12 30 0
-12 121 0
-30 121 0
-122 12 39 0
-12 122 0
-39 122 0
-123 12 48 0
-12 123 0
-48 123 0
-124 21 30 0
-21 124 0
-30 124 0
-125 21 39 0
-21 125 0
-39 125 0
-126 21 48 0
-21 126 0
-48 126 0
-127 30 39 0
-30 127 0
-39 127 0
-128 30 48 0
-30 128 0
-48 128 0
-129 39 48 0
-39 129 0
-48 129 0
-130 128 0
-130 129 0
130 -128 -129 0
-131 127 0
-131 130 0
131 -127 -130 0
-132 126 0
-132 131 0
132 -126 -131 0
-133 125 0
-133 132 0
133 -125 -132 0
-134 124 0
-134 133 0
134 -124 -133 0
-135 123 0
-135 134 0
135 -123 -134 0
-136 122 0
-136 135 0
136 -122 -135 0
-137 121 0
-137 136 0
137 -121 -136 0
-138 120 0
-138 137 0
138 -120 -137 0
-139 119 0
-139 138 0
139 -119 -138 0
-140 118 0
-140 139 0
140 -118 -139 0
-141 117 0
-141 140 0
141 -117 -140 0
-142 116 0
-142 141 0
142 -116 -141 0
-143 115 0
-143 142 0
143 -115 -142 0
-144 114 0
-144 143 0
144 -114 -143 0
-145 113 0
-145 144 0
145 -113 -144 0
-146 112 0
-146 145 0
146 -112 -145 0
-147 111 0
-147 146 0
147 -111 -146 0
-148 110 0
-148 147 0
148 -110 -147 0
-149 109 0
-149 148 0
149 -109 -148 0
-150 108 0
-150 149 0
150 -108 -149 0
-151 107 0
-151 150 0
151 -107 -150 0
-152 106 0
-152 151 0
152 -106 -151 0
-153 105 0
-153 152 0
153 -105 -152 0
-154 104 0
-154 153 0
154 -104 -153 0
-155 103 0
-155 154 0
155 -103 -154 0
-156 102 0
-156 155 0
156 -102 -155 0
-157 101 0
-157 156 0
157 -101 -156 0
-158 100 0
-158 157 0
158 -100 -157 0
-159 99 0
-159 158 0
159 -99 -158 0
-160 98 0
-160 159 0
160 -98 -159 0
-161 97 0
-161 160 0
161 -97 -160 0
-162 96 0
-162 161 0
162 -96 -161 0
-163 95 0
-163 162 0
163 -95 -162 0
-164 94 0
-164 163 0
164 -94 -163 0
-165 93 0
-165 164 0
165 -93 -164 0
-166 92 0
-166 165 0
166 -92 -165 0
-167 91 0
-167 166 0
167 -91 -166 0
-168 90 0
-168 167 0
168 -90 -167 0
-169 89 0
-169 168 0
169 -89 -168 0
-170 88 0
-170 169 0
170 -88 -169 0
-171 87 0
-171 170 0
171 -87 -170 0
-172 86 0
-172 171 0
172 -86 -171 0
-173 85 0
-173 172 0
173 -85 -172 0
-174 84 0
-174 173 0
174 -84 -173 0
-175 83 0
-175 174 0
175 -83 -174 0
-176 82 0
-176 175 0
176 -82 -175 0
-177 81 0
-177 176 0
177 -81 -176 0
-178 80 0
-178 177 0
178 -80 -177 0
-179 79 0
-179 178 0
179 -79 -178 0
-180 78 0
-180 179 0
180 -78 -179 0
-181 77 0
-181 180 0
181 -77 -180 0
-182 76 0
-182 181 0
182 -76 -181 0
-183 75 0
-183 182 0
183 -75 -182 0
-184 74 0
-184 183 0
184 -74 -183 0
-185 73 0
-185 184 0
185 -73 -184 0
-186 72 0
-186 185 0
186 -72 -185 0
-187 71 0
-187 186 0
187 -71 -186 0
-188 70 0
-188 187 0
188 -70 -187 0
-189 69 0
-189 188 0
189 -69 -188 0
-190 68 0
-190 189 0
190 -68 -189 0
-191 67 0
-191 190 0
191 -67 -190 0
-192 66 0
-192 191 0
192 -66 -191 0
-193 65 0
-193 192 0
193 -65 -192 0
-194 64 0
-194 193 0
194 -64 -193 0
-195 63 0
-195 194 0
195 -63 -194 0
-196 62 0
-196 195 0
196 -62 -195 0
-197 61 0
-197 196 0
197 -61 -196 0
-198 60 0
-198 197 0
198 -60 -197 0
-199 59 0
-199 198 0
199 -59 -198 0
-200 58 0
-200 199 0
200 -58 -199 0
-201 57 0
-201 200 0
201 -57 -200 0
-202 56 0
-202 201 0
202 -56 -201 0
-203 55 0
-203 202 0
203 -55 -202 0
-204 53 0
-204 203 0
204 -53 -203 0
-205 44 0
-205 204 0
205 -44 -204 0
-206 35 0
-206 205 0
206 -35 -205 0
-207 26 0
-207 206 0
207 -26 -206 0
-208 17 0
-208 207 0
208 -17 -207 0
-209 8 0
-209 208 0
209 -8 -208 0
209 0
